\ SCIP STATISTICS
\   Problem name     : milp
\   Variables        : 3 (0 binary, 0 integer, 0 implicit integer, 3 continuous)
\   Constraints      : 6
Maximize
 Obj: +1 in_0
Subject to
 c1: +1 x_0_0 -0.0729273557662964 in_0 = -0.297867774963379
 c2: +1 out_0 = -0.840551733970642
 c3: +1 out_0 >= -1.49277932739258
 c4: +1 out_0 <= -1.49077932739258
 c5: -1 out_0 <= +1.49277932739258
 c6: +1 out_0 <= -1.49077932739258
Bounds
 -0.180165170133114 <= in_0 <= 0.0198348298668861
 -0.311006744422372 <= x_0_0 <= -0.296421273269113
 -0.840551733970642 <= out_0 <= -0.840551733970642
End
